14,5	0,0	5,9	7,2	0,0	0,0	0,0	0,0	0,0	7,3
14,2	18,5	0,0	17,4	6,7	0,0	0,0	18,0	0,0	0,0
0,0	0,0	14,3	0,0	12,0	10,2	0,0	0,0	17,1	0,0
5,7	0,0	9,3	0,0	0,0	0,0	11,1	0,0	0,0	0,0
0,0	6,0	0,0	12,9	14,4	0,0	0,0	12,3	0,0	0,0
0,0	17,8	10,0	0,0	14,9	10,0	0,0	0,0	9,2	0,0
0,0	8,4	0,0	11,4	0,0	0,0	10,5	0,0	0,0	15,3
9,6	0,0	18,0	0,0	0,0	0,0	0,0	0,0	0,0	16,2
0,0	12,8	0,0	19,8	7,5	0,0	0,0	15,1	0,0	0,0
0,0	0,0	17,5	0,0	0,0	16,3	10,8	0,0	0,0	16,7
									
4,1	2,9	4,4	3,2	4,8	4,3	4,2	3,2	4,5	4,5
